c ren 1 -> 1
c ren 2 -> 2
c ren 3 -> 3
c ren 4 -> 4
c ren 5 -> 5
c ren 6 -> 6
c ren 7 -> 7
c ren 8 -> 8
c ren 9 -> 9
c ren 10 -> 10
c ren 11 -> 11
c ren 12 -> 12
c ren 13 -> 13
c ren 14 -> 14
c ren 17 -> 15
c ren 18 -> 16
c ren 19 -> 17
c ren 20 -> 18
c ren 22 -> 19
c ren 23 -> 20
c ren 24 -> 21
c ren 32 -> 22
c ren 49 -> 23
c ren 52 -> 24
p cnf 24 77
a 1 2 3 4 5 6 7 8 9 10 11 12 13 14 15 16 17 18 0
d 19 15 16 0
d 20 3 4 0
d 21 17 18 0
e 22 23 24 0
-6 15 22 0
1 2 3 4 -8 20 23 -24 0
-7 -15 -22 0
1 2 -4 -8 -20 23 -24 0
-8 -15 -22 0
1 2 3 4 5 6 7 8 9 10 11 12 13 -14 23 -24 0
-6 -19 23 -24 0
1 2 3 4 10 -12 20 23 -24 0
-8 -19 23 -24 0
-7 -19 23 -24 0
1 2 5 6 7 8 9 10 11 12 13 14 -20 23 -24 0
-9 11 12 16 -17 -22 -23 0
-8 15 22 0
10 -11 16 17 -22 -23 0
1 2 -3 10 -12 -20 23 -24 0
-2 11 12 16 -17 -22 -23 0
1 2 3 4 10 14 20 23 -24 0
5 6 7 8 -15 22 0
-9 -19 23 -24 0
1 2 -3 -8 -20 23 -24 0
-7 15 22 0
-9 -12 16 17 -22 -23 0
10 -19 23 -24 0
1 2 3 4 -6 20 23 -24 0
10 11 12 16 -17 -22 -23 0
-2 -11 16 17 -22 -23 0
-1 -12 16 17 -22 -23 0
1 2 3 4 5 6 7 8 9 10 11 12 -13 21 23 -24 0
22 23 0
5 6 7 8 9 10 -11 -20 -21 23 -24 0
-2 -19 23 -24 0
5 6 7 8 9 10 -12 -20 -21 23 -24 0
-2 -12 16 17 -22 -23 0
1 2 -13 -18 24 0
5 6 7 8 9 10 13 -20 -21 23 -24 0
1 2 3 4 10 -13 20 23 -24 0
-2 5 6 7 8 9 10 -20 -21 23 -24 0
-1 5 6 7 8 9 10 -20 -21 23 -24 0
-5 15 22 0
-5 -19 23 -24 0
1 2 3 4 -5 20 23 -24 0
1 2 -3 -6 -20 23 -24 0
-3 -19 23 -24 0
-11 16 17 20 -22 -23 0
-1 -11 16 17 -22 -23 0
1 2 9 -10 -12 -16 17 -20 -22 -23 0
-4 -19 23 -24 0
1 2 3 4 -7 20 23 -24 0
-9 -11 16 17 -22 -23 0
1 2 -3 -9 -20 23 -24 0
-1 18 24 0
1 2 -3 -5 -20 23 -24 0
1 2 -4 -7 -20 23 -24 0
1 2 -3 10 -11 -20 23 -24 0
1 2 -3 -7 -20 23 -24 0
1 2 -4 -9 -20 23 -24 0
13 18 24 0
-12 16 17 20 -22 -23 0
10 -12 16 17 -22 -23 0
-1 11 12 16 -17 -22 -23 0
-2 18 24 0
11 12 16 -17 20 -22 -23 0
1 2 3 4 10 -11 20 23 -24 0
1 2 -4 10 -12 -20 23 -24 0
-3 5 6 7 8 9 10 -20 -21 23 -24 0
-1 -19 23 -24 0
1 2 3 4 -9 20 23 -24 0
5 6 7 8 15 -22 0
1 2 -4 -5 -20 23 -24 0
1 2 9 -10 11 12 -16 -17 -20 -22 -23 0
1 2 9 -10 -11 -16 17 -20 -22 -23 0
-6 -15 -22 0
-4 5 6 7 8 9 10 -20 -21 23 -24 0
1 2 -4 -6 -20 23 -24 0
1 2 -4 10 -11 -20 23 -24 0
1 2 3 4 5 6 7 8 9 -10 19 23 -24 0
-5 -15 -22 0
